Minimize

1 x_0_0 + 7 x_0_1 + 1 x_0_2 + 1 x_0_3 + 10 x_0_4 + 8 x_0_5 + 15 x_0_6 + 9 x_0_7 + 1 x_0_8 + 1 x_0_9 + 25 x_1_0 + 3 x_1_1 + 8 x_1_2 + 1 x_1_3 + 1 x_1_4 + 1 x_1_5 + 1 x_1_6 + 1 x_1_7 + 11 x_1_8 + 1 x_1_9 + 1 x_2_0 + 1 x_2_1 + 1 x_2_2 + 25 x_2_3 + 15 x_2_4 + 1 x_2_5 + 30 x_2_6 + 10 x_2_7 + 7 x_2_8 + 1 x_2_9


Subject To

a0: x_0_0 + x_0_1 + x_0_2 + x_0_3 + x_0_4 + x_0_5 + x_0_6 + x_0_7 + x_0_8 + x_0_9 <= 12
a1: x_1_0 + x_1_1 + x_1_2 + x_1_3 + x_1_4 + x_1_5 + x_1_6 + x_1_7 + x_1_8 + x_1_9 <= 15
a2: x_2_0 + x_2_1 + x_2_2 + x_2_3 + x_2_4 + x_2_5 + x_2_6 + x_2_7 + x_2_8 + x_2_9 <= 13
b0: x_0_0 + x_1_0 + x_2_0 >= 3
b1: x_0_1 + x_1_1 + x_2_1 >= 1
b2: x_0_2 + x_1_2 + x_2_2 >= 8
b3: x_0_3 + x_1_3 + x_2_3 >= 5
b4: x_0_4 + x_1_4 + x_2_4 >= 1
b5: x_0_5 + x_1_5 + x_2_5 >= 3
b6: x_0_6 + x_1_6 + x_2_6 >= 1
b7: x_0_7 + x_1_7 + x_2_7 >= 10
b8: x_0_8 + x_1_8 + x_2_8 >= 2
b9: x_0_9 + x_1_9 + x_2_9 >= 6





General

 x_0_0 x_0_1 x_0_2 x_0_3 x_0_4 x_0_5 x_0_6 x_0_7 x_0_8 x_0_9 x_1_0 x_1_1 x_1_2 x_1_3 x_1_4 x_1_5 x_1_6 x_1_7 x_1_8 x_1_9 x_2_0 x_2_1 x_2_2 x_2_3 x_2_4 x_2_5 x_2_6 x_2_7 x_2_8 x_2_9



End
